0 53 
1 55 
2 55 
3 53 
4 51 
5 48 
6 49 
7 49 
8 48 
9 45 
10 46 
11 46 
12 44 
13 42 
14 43 
15 42 
16 40 
17 40 
18 39 
19 38 
20 37 
21 35 
22 33 
23 32 
24 33 
25 32 
26 35 
27 33 
28 31 
29 31 
30 32 
31 31 
32 30 
33 30 
34 30 
35 27 
36 25 
37 26 
38 24 
39 22 
40 22 
41 21 
42 18 
43 16 
44 16 
45 16 
46 12 
47 13 
48 11 
49 12 
50 12 
51 12 
52 10 
53 6 
54 6 
55 5 
56 5 
57 6 
58 2 
59 2 
60 0 
61 0 

